\ Model matlab
\ LP format - for model browsing. Use MPS format to capture full model detail.
Minimize
  - 1.2 u_1 - 2 u_2 + [ 2 u_1 ^2 + 2 u_2 ^2 ] / 2 
Subject To
 R0: 1.107086446454901 u_1 - 5.29834e-05 u_2 >= 1.576202937430858
 R1: 0.6149139766769138 u_1 + 2.66695e-05 u_2 >= 0.7689310784408803
Bounds
 -100 <= u_1 <= 100
 -100 <= u_2 <= 100
End
